nN = 8;
nR = 24;
nH = 2;

a = [[18, 21, 23, 23, 21, 16, 25, 22, 21, 18, 15, 18, 20, 17, 21, 25, 25, 18, 24, 16, 17, 22, 21, 20], [17, 20, 19, 22, 21, 22, 21, 22, 20, 24, 22, 21, 21, 19, 23, 15, 25, 24, 20, 20, 25, 17, 22, 19], [24, 22, 16, 21, 16, 17, 22, 15, 16, 22, 24, 23, 25, 16, 24, 17, 16, 17, 16, 15, 21, 22, 20, 21], [15, 17, 16, 21, 17, 15, 24, 17, 18, 21, 25, 22, 17, 24, 22, 18, 16, 16, 16, 24, 19, 15, 16, 18], [15, 15, 23, 17, 16, 19, 16, 19, 18, 19, 23, 20, 21, 22, 22, 16, 19, 15, 17, 20, 20, 25, 25, 24], [23, 18, 25, 25, 20, 20, 16, 24, 18, 19, 18, 21, 19, 21, 17, 25, 18, 16, 21, 15, 21, 15, 18, 24], [17, 25, 16, 15, 23, 25, 23, 23, 25, 18, 18, 25, 19, 25, 22, 19, 16, 16, 18, 24, 19, 17, 22, 19], [21, 16, 16, 21, 23, 24, 20, 16, 22, 19, 18, 15, 23, 19, 22, 17, 15, 23, 25, 22, 25, 17, 18, 22]];
c = [[[0, 0, 0, 0, 0, 0, 0, 0, 0, 0, 0, 0, 0, 0, 0, 0, 0, 0, 0, 0, 0, 0, 0, 0], [32, 42, 36, 42, 36, 31, 44, 41, 45, 33, 48, 41, 44, 46, 48, 45, 32, 31, 49, 49, 31, 37, 47, 30], [31, 41, 43, 38, 30, 42, 39, 50, 43, 37, 47, 37, 50, 50, 47, 31, 46, 35, 49, 45, 30, 50, 32, 31], [43, 30, 50, 46, 37, 30, 33, 44, 42, 42, 47, 35, 43, 38, 47, 46, 35, 36, 45, 31, 32, 34, 33, 46], [32, 35, 35, 49, 44, 39, 47, 35, 47, 48, 47, 34, 46, 47, 45, 38, 40, 39, 31, 31, 49, 45, 34, 40], [45, 38, 45, 41, 48, 34, 44, 44, 35, 37, 36, 43, 34, 39, 44, 50, 31, 32, 39, 40, 31, 41, 38, 47], [50, 47, 43, 36, 41, 43, 36, 30, 43, 39, 43, 42, 50, 38, 43, 32, 33, 30, 36, 44, 33, 46, 31, 48], [43, 50, 50, 38, 33, 41, 37, 36, 49, 31, 46, 44, 46, 31, 41, 47, 36, 34, 34, 36, 43, 31, 30, 40]], [[0, 0, 0, 0, 0, 0, 0, 0, 0, 0, 0, 0, 0, 0, 0, 0, 0, 0, 0, 0, 0, 0, 0, 0], [0, 0, 0, 0, 0, 0, 0, 0, 0, 0, 0, 0, 0, 0, 0, 0, 0, 0, 0, 0, 0, 0, 0, 0], [44, 35, 46, 36, 32, 37, 43, 38, 39, 48, 40, 37, 35, 47, 35, 47, 42, 37, 42, 41, 43, 41, 32, 38], [45, 31, 33, 32, 40, 33, 48, 39, 45, 40, 39, 36, 44, 45, 43, 30, 34, 50, 38, 34, 36, 36, 30, 34], [35, 38, 49, 39, 39, 46, 38, 34, 41, 39, 48, 38, 47, 40, 34, 47, 31, 44, 42, 44, 35, 34, 40, 30], [30, 30, 44, 49, 46, 40, 37, 41, 46, 50, 47, 40, 48, 33, 37, 38, 36, 39, 46, 33, 45, 38, 37, 48], [43, 42, 35, 45, 34, 43, 39, 37, 47, 42, 31, 45, 38, 49, 50, 31, 43, 35, 36, 47, 45, 31, 38, 45], [49, 41, 44, 42, 41, 43, 42, 37, 44, 30, 31, 43, 31, 42, 34, 50, 46, 44, 49, 39, 36, 38, 37, 48]], [[0, 0, 0, 0, 0, 0, 0, 0, 0, 0, 0, 0, 0, 0, 0, 0, 0, 0, 0, 0, 0, 0, 0, 0], [0, 0, 0, 0, 0, 0, 0, 0, 0, 0, 0, 0, 0, 0, 0, 0, 0, 0, 0, 0, 0, 0, 0, 0], [0, 0, 0, 0, 0, 0, 0, 0, 0, 0, 0, 0, 0, 0, 0, 0, 0, 0, 0, 0, 0, 0, 0, 0], [31, 46, 30, 45, 47, 30, 43, 34, 34, 40, 47, 30, 41, 39, 42, 30, 43, 33, 33, 38, 36, 36, 45, 32], [38, 38, 47, 39, 43, 37, 50, 41, 41, 45, 44, 44, 39, 44, 50, 49, 41, 41, 40, 39, 37, 36, 31, 33], [32, 33, 35, 31, 33, 40, 39, 47, 40, 34, 31, 35, 31, 39, 43, 30, 47, 36, 42, 35, 36, 49, 32, 40], [38, 35, 43, 37, 40, 32, 39, 47, 47, 44, 42, 36, 45, 41, 32, 41, 42, 45, 40, 35, 47, 47, 50, 40], [43, 32, 45, 40, 39, 45, 43, 34, 39, 44, 38, 43, 42, 31, 45, 35, 37, 48, 37, 45, 40, 33, 30, 47]], [[0, 0, 0, 0, 0, 0, 0, 0, 0, 0, 0, 0, 0, 0, 0, 0, 0, 0, 0, 0, 0, 0, 0, 0], [0, 0, 0, 0, 0, 0, 0, 0, 0, 0, 0, 0, 0, 0, 0, 0, 0, 0, 0, 0, 0, 0, 0, 0], [0, 0, 0, 0, 0, 0, 0, 0, 0, 0, 0, 0, 0, 0, 0, 0, 0, 0, 0, 0, 0, 0, 0, 0], [0, 0, 0, 0, 0, 0, 0, 0, 0, 0, 0, 0, 0, 0, 0, 0, 0, 0, 0, 0, 0, 0, 0, 0], [31, 33, 42, 47, 42, 33, 47, 42, 43, 48, 40, 31, 36, 48, 48, 38, 31, 30, 46, 46, 41, 45, 34, 32], [40, 48, 30, 45, 48, 43, 31, 47, 39, 42, 45, 40, 30, 39, 40, 42, 31, 40, 35, 30, 34, 49, 35, 45], [48, 43, 44, 34, 42, 34, 38, 35, 37, 49, 40, 50, 50, 41, 37, 48, 30, 37, 44, 32, 42, 31, 43, 36], [42, 48, 31, 50, 34, 34, 42, 50, 33, 49, 40, 44, 47, 38, 42, 38, 42, 48, 34, 33, 41, 50, 40, 42]], [[0, 0, 0, 0, 0, 0, 0, 0, 0, 0, 0, 0, 0, 0, 0, 0, 0, 0, 0, 0, 0, 0, 0, 0], [0, 0, 0, 0, 0, 0, 0, 0, 0, 0, 0, 0, 0, 0, 0, 0, 0, 0, 0, 0, 0, 0, 0, 0], [0, 0, 0, 0, 0, 0, 0, 0, 0, 0, 0, 0, 0, 0, 0, 0, 0, 0, 0, 0, 0, 0, 0, 0], [0, 0, 0, 0, 0, 0, 0, 0, 0, 0, 0, 0, 0, 0, 0, 0, 0, 0, 0, 0, 0, 0, 0, 0], [0, 0, 0, 0, 0, 0, 0, 0, 0, 0, 0, 0, 0, 0, 0, 0, 0, 0, 0, 0, 0, 0, 0, 0], [50, 36, 31, 30, 43, 48, 46, 31, 35, 37, 30, 44, 39, 40, 39, 48, 48, 39, 50, 34, 33, 42, 42, 31], [31, 36, 42, 37, 39, 43, 44, 30, 37, 31, 45, 32, 34, 46, 40, 43, 30, 37, 44, 43, 46, 32, 35, 34], [49, 45, 46, 49, 46, 40, 30, 41, 42, 30, 37, 33, 49, 32, 48, 34, 33, 37, 31, 35, 41, 48, 39, 44]], [[0, 0, 0, 0, 0, 0, 0, 0, 0, 0, 0, 0, 0, 0, 0, 0, 0, 0, 0, 0, 0, 0, 0, 0], [0, 0, 0, 0, 0, 0, 0, 0, 0, 0, 0, 0, 0, 0, 0, 0, 0, 0, 0, 0, 0, 0, 0, 0], [0, 0, 0, 0, 0, 0, 0, 0, 0, 0, 0, 0, 0, 0, 0, 0, 0, 0, 0, 0, 0, 0, 0, 0], [0, 0, 0, 0, 0, 0, 0, 0, 0, 0, 0, 0, 0, 0, 0, 0, 0, 0, 0, 0, 0, 0, 0, 0], [0, 0, 0, 0, 0, 0, 0, 0, 0, 0, 0, 0, 0, 0, 0, 0, 0, 0, 0, 0, 0, 0, 0, 0], [0, 0, 0, 0, 0, 0, 0, 0, 0, 0, 0, 0, 0, 0, 0, 0, 0, 0, 0, 0, 0, 0, 0, 0], [41, 43, 36, 33, 33, 30, 37, 38, 35, 47, 37, 47, 30, 41, 48, 44, 37, 43, 39, 44, 46, 42, 50, 40], [37, 42, 40, 33, 40, 43, 34, 50, 34, 31, 32, 43, 45, 44, 37, 45, 33, 38, 45, 49, 43, 33, 37, 34]], [[0, 0, 0, 0, 0, 0, 0, 0, 0, 0, 0, 0, 0, 0, 0, 0, 0, 0, 0, 0, 0, 0, 0, 0], [0, 0, 0, 0, 0, 0, 0, 0, 0, 0, 0, 0, 0, 0, 0, 0, 0, 0, 0, 0, 0, 0, 0, 0], [0, 0, 0, 0, 0, 0, 0, 0, 0, 0, 0, 0, 0, 0, 0, 0, 0, 0, 0, 0, 0, 0, 0, 0], [0, 0, 0, 0, 0, 0, 0, 0, 0, 0, 0, 0, 0, 0, 0, 0, 0, 0, 0, 0, 0, 0, 0, 0], [0, 0, 0, 0, 0, 0, 0, 0, 0, 0, 0, 0, 0, 0, 0, 0, 0, 0, 0, 0, 0, 0, 0, 0], [0, 0, 0, 0, 0, 0, 0, 0, 0, 0, 0, 0, 0, 0, 0, 0, 0, 0, 0, 0, 0, 0, 0, 0], [0, 0, 0, 0, 0, 0, 0, 0, 0, 0, 0, 0, 0, 0, 0, 0, 0, 0, 0, 0, 0, 0, 0, 0], [48, 50, 33, 43, 41, 48, 34, 35, 50, 33, 44, 44, 38, 31, 38, 33, 31, 32, 41, 48, 31, 38, 50, 40]], [[0, 0, 0, 0, 0, 0, 0, 0, 0, 0, 0, 0, 0, 0, 0, 0, 0, 0, 0, 0, 0, 0, 0, 0], [0, 0, 0, 0, 0, 0, 0, 0, 0, 0, 0, 0, 0, 0, 0, 0, 0, 0, 0, 0, 0, 0, 0, 0], [0, 0, 0, 0, 0, 0, 0, 0, 0, 0, 0, 0, 0, 0, 0, 0, 0, 0, 0, 0, 0, 0, 0, 0], [0, 0, 0, 0, 0, 0, 0, 0, 0, 0, 0, 0, 0, 0, 0, 0, 0, 0, 0, 0, 0, 0, 0, 0], [0, 0, 0, 0, 0, 0, 0, 0, 0, 0, 0, 0, 0, 0, 0, 0, 0, 0, 0, 0, 0, 0, 0, 0], [0, 0, 0, 0, 0, 0, 0, 0, 0, 0, 0, 0, 0, 0, 0, 0, 0, 0, 0, 0, 0, 0, 0, 0], [0, 0, 0, 0, 0, 0, 0, 0, 0, 0, 0, 0, 0, 0, 0, 0, 0, 0, 0, 0, 0, 0, 0, 0], [0, 0, 0, 0, 0, 0, 0, 0, 0, 0, 0, 0, 0, 0, 0, 0, 0, 0, 0, 0, 0, 0, 0, 0]]];

q = [[[21, 110], [11, 121], [12, 105], [23, 119], [24, 123], [20, 112], [21, 117], [16, 106], [19, 119], [11, 108], [21, 111], [15, 110], [5, 107], [17, 124], [20, 125], [25, 108], [20, 110], [21, 108], [11, 120], [19, 118], [9, 109], [14, 125], [20, 109], [5, 110]], [[6, 109], [24, 122], [8, 125], [7, 109], [12, 112], [22, 124], [13, 123], [17, 107], [6, 112], [16, 116], [22, 113], [18, 113], [23, 124], [9, 120], [22, 123], [20, 110], [18, 107], [24, 119], [7, 118], [15, 116], [9, 116], [14, 113], [20, 114], [6, 107]], [[5, 109], [16, 107], [13, 120], [7, 112], [21, 105], [7, 114], [19, 106], [25, 108], [8, 105], [9, 117], [16, 125], [8, 112], [21, 105], [23, 118], [9, 112], [16, 107], [7, 121], [8, 120], [24, 105], [22, 114], [12, 105], [15, 123], [17, 123], [5, 116]], [[23, 113], [18, 109], [18, 113], [7, 119], [9, 106], [10, 119], [13, 120], [16, 109], [22, 125], [12, 116], [18, 111], [5, 115], [15, 112], [14, 122], [23, 108], [21, 106], [20, 105], [10, 123], [14, 124], [17, 116], [21, 106], [8, 119], [7, 118], [15, 112]], [[21, 114], [23, 115], [10, 112], [15, 124], [8, 125], [25, 107], [15, 118], [5, 109], [11, 105], [23, 123], [12, 121], [22, 105], [21, 125], [18, 106], [24, 105], [15, 110], [25, 115], [12, 114], [15, 119], [9, 113], [25, 113], [13, 120], [19, 105], [10, 114]], [[17, 105], [24, 123], [9, 124], [14, 116], [25, 116], [13, 109], [22, 114], [10, 116], [22, 108], [20, 125], [19, 112], [11, 123], [9, 116], [24, 125], [14, 106], [21, 111], [21, 112], [23, 113], [9, 113], [23, 113], [13, 125], [11, 110], [18, 108], [6, 112]], [[6, 112], [18, 120], [22, 122], [10, 111], [7, 106], [23, 112], [8, 110], [12, 117], [23, 114], [9, 109], [18, 109], [24, 115], [14, 114], [24, 117], [5, 117], [8, 111], [14, 123], [21, 125], [21, 112], [17, 124], [19, 110], [19, 107], [15, 122], [15, 122]], [[7, 108], [19, 120], [25, 123], [12, 113], [17, 123], [21, 110], [20, 107], [25, 109], [20, 115], [13, 120], [10, 117], [5, 109], [12, 118], [23, 120], [15, 120], [14, 124], [10, 114], [13, 111], [25, 117], [6, 123], [13, 122], [14, 116], [21, 112], [18, 119]]];
Q = [[40, 274], [35, 278], [33, 271], [35, 275], [39, 274], [39, 276], [37, 277], [37, 279]];
